Optimal - objective value 4.00000000
    511 0TOrxn154TO1vtx                           1                       0
    651 0TOrxn210TO1vtx                           2                       0
    701 0TOrxn233TO1vtx                           2                       0
    894 0TOrxn319TO0vtx                           1                       0
   1194 0TOrxn447TO2vtx                           2                       0
   1197 0TOrxn448TO2vtx                           1                       0
   1483 0TOrxn541TO0vtx                         100                       0
   1793 0TOrxn656TO0vtx                           1                       0
   1903 0TOrxn703TO0vtx                           2                       0
   1904 0TOrxn703TO1vtx                           2                       0
   1906 0TOrxn704TO1vtx                           2                       0
   1936 0TOrxn717TO0vtx                           1                       0
   2063 0TOrxn764TO0vtx                           1                       0
   2161 0TOrxn805TO0vtx                           2                       0
   2253 0TOrxn840TO1vtx                           1                       0
   2652 0TOrxn99TO1vtx                          100                       0
   3246 1TOrxn210TO1vtx                           2                       0
   3295 1TOrxn233TO1vtx                           2                       0
   3661 1TOrxn447TO2vtx                           2                       0
   3664 1TOrxn448TO2vtx                           1                       0
   3926 1TOrxn541TO0vtx                         100                       0
   4194 1TOrxn656TO0vtx                           1                       0
   4426 1TOrxn764TO0vtx                           1                       0
   4501 1TOrxn805TO0vtx                           2                       0
   4930 1TOrxn99TO1vtx                          100                       0
   5321 2TOrxn447TO2vtx                           2                       0
   5324 2TOrxn448TO2vtx                           1                       0
   5739 2TOrxn764TO0vtx                           1                       0
   6312 rxn100                                    1                       0
   6427 rxn103                                    1                       0
   6494 rxn105                                    1                       0
   6529 rxn106                                    1                       0
   6567 rxn107                                    1                       0
   6605 rxn108                                    1                       0
   6834 rxn114                                    1                       0
   6902 rxn116                                    1                       0
   6918 rxn120                                    1                       0
   6943 rxn127                                    1                       0
   6946 rxn128                                    1                       0
   6967 rxn133                                    1                       0
   6969 rxn134                                    1                       0
   6991 rxn14                                     1                       0
   7003 rxn144                                    1                       0
   7011 rxn147                                    1                       0
   7014 rxn148                                    1                       0
   7030 rxn152                                    1                       0
   7033 rxn153                                    1                       0
   7036 rxn154                                    1                       0
   7038 rxn154TO1                                 1                       0
   7041 rxn156                                    1                       0
   7047 rxn158                                    1                       0
   7064 rxn162                                    1                       0
   7067 rxn163                                    1                       0
   7087 rxn169                                    1                       0
   7119 rxn178                                    1                       0
   7141 rxn184                                    1                       0
   7165 rxn190                                    1                       0
   7174 rxn193                                    1                       0
   7188 rxn196                                    1                       0
   7197 rxn199                                    1                       0
   7233 rxn207                                    1                       0
   7239 rxn209                                    1                       0
   7246 rxn210                                    1                       0
   7248 rxn210TO1                                 2                       0
   7255 rxn213                                    1                       0
   7313 rxn230                                    1                       0
   7321 rxn233                                    1                       0
   7323 rxn233TO1                                 2                       0
   7324 rxn234                                    1                       0
   7330 rxn236                                    1                       0
   7356 rxn243                                    1                       0
   7371 rxn248                                    1                       0
   7394 rxn255                                    1                       0
   7436 rxn268                                    1                       0
   7469 rxn278                                    1                       0
   7491 rxn284                                    1                       0
   7499 rxn287                                    1                       0
   7502 rxn288                                    1                       0
   7512 rxn290                                    1                       0
   7527 rxn295                                    1                       0
   7551 rxn301                                    1                       0
   7564 rxn305                                    1                       0
   7567 rxn306                                    1                       0
   7570 rxn307                                    1                       0
   7583 rxn31                                     1                       0
   7608 rxn318                                    1                       0
   7610 rxn319                                    1                       0
   7611 rxn319TO0                                 1                       0
   7619 rxn320                                    1                       0
   7631 rxn324                                    1                       0
   7635 rxn325                                    1                       0
   7638 rxn326                                    1                       0
   7642 rxn327                                    1                       0
   7646 rxn328                                    1                       0
   7659 rxn331                                    1                       0
   7674 rxn336                                    1                       0
   7692 rxn340                                    1                       0
   7702 rxn343                                    1                       0
   7705 rxn344                                    1                       0
   7711 rxn346                                    1                       0
   7726 rxn35                                     1                       0
   7733 rxn352                                    1                       0
   7736 rxn353                                    1                       0
   7739 rxn354                                    1                       0
   7742 rxn355                                    1                       0
   7748 rxn357                                    1                       0
   7751 rxn358                                    1                       0
   7760 rxn360                                    1                       0
   7763 rxn361                                    1                       0
   7775 rxn365                                    1                       0
   7794 rxn370                                    1                       0
   7816 rxn376                                    1                       0
   7822 rxn378                                    1                       0
   7825 rxn379                                    1                       0
   7831 rxn380                                    1                       0
   7840 rxn383                                    1                       0
   7843 rxn384                                    1                       0
   7865 rxn390                                    1                       0
   7880 rxn395                                    1                       0
   7912 rxn402                                    1                       0
   7920 rxn406                                    1                       0
   7935 rxn412                                    1                       0
   7939 rxn414                                    1                       0
   7941 rxn415                                    1                       0
   7945 rxn417                                    1                       0
   7955 rxn42                                     1                       0
   7966 rxn425                                    1                       0
   7978 rxn43                                     1                       0
   8050 rxn447                                    1                       0
   8053 rxn447TO2                                 2                       0
   8054 rxn448                                    1                       0
   8057 rxn448TO2                                 1                       0
   8066 rxn450                                    1                       0
   8074 rxn452                                    1                       0
   8090 rxn456                                    1                       0
   8109 rxn46                                     1                       0
   8121 rxn463                                    1                       0
   8147 rxn469                                    1                       0
   8154 rxn47                                     1                       0
   8175 rxn474                                    1                       0
   8181 rxn475                                    1                       0
   8187 rxn476                                    1                       0
   8212 rxn481                                    1                       0
   8216 rxn482                                    1                       0
   8220 rxn483                                    1                       0
   8224 rxn484                                    1                       0
   8227 rxn485                                    1                       0
   8231 rxn486                                    1                       0
   8234 rxn487                                    1                       0
   8285 rxn499                                    1                       0
   8298 rxn501                                    1                       0
   8325 rxn509                                    1                       0
   8368 rxn52                                     1                       0
   8378 rxn523                                    1                       0
   8389 rxn527                                    1                       0
   8442 rxn54                                     1                       0
   8443 rxn540                                    1                       0
   8446 rxn541                                    1                       0
   8447 rxn541TO0                               100                       0
   8450 rxn542                                    1                       0
   8478 rxn55                                     1                       0
   8485 rxn552                                    1                       0
   8498 rxn555                                    1                       0
   8518 rxn561                                    1                       0
   8525 rxn563                                    1                       0
   8537 rxn566                                    1                       0
   8545 rxn569                                    1                       0
   8551 rxn57                                     1                       0
   8569 rxn574                                    1                       0
   8577 rxn576                                    1                       0
   8611 rxn585                                    1                       0
   8620 rxn588                                    1                       0
   8639 rxn592                                    1                       0
   8655 rxn597                                    1                       0
   8658 rxn598                                    1                       0
   8672 rxn600                                    1                       0
   8680 rxn602                                    1                       0
   8696 rxn607                                    1                       0
   8709 rxn61                                     1                       0
   8720 rxn612                                    1                       0
   8723 rxn613                                    1                       0
   8758 rxn622                                    1                       0
   8781 rxn629                                    1                       0
   8787 rxn63                                     1                       0
   8797 rxn633                                    1                       0
   8808 rxn636                                    1                       0
   8830 rxn642                                    1                       0
   8883 rxn656                                    1                       0
   8884 rxn656TO0                                 1                       0
   8897 rxn66                                     1                       0
   8898 rxn660                                    1                       0
   8904 rxn662                                    1                       0
   8932 rxn67                                     1                       0
   8945 rxn674                                    1                       0
   8983 rxn686                                    1                       0
   8986 rxn687                                    1                       0
   9046 rxn703                                    1                       0
   9047 rxn703TO0                                 2                       0
   9048 rxn703TO1                                 2                       0
   9049 rxn704                                    1                       0
   9051 rxn704TO1                                 2                       0
   9052 rxn705                                    1                       0
   9058 rxn707                                    1                       0
   9068 rxn71                                     1                       0
   9083 rxn714                                    1                       0
   9094 rxn717                                    1                       0
   9095 rxn717TO0                                 1                       0
   9108 rxn72                                     1                       0
   9117 rxn722                                    1                       0
   9141 rxn728                                    1                       0
   9151 rxn73                                     1                       0
   9152 rxn730                                    1                       0
   9222 rxn75                                     1                       0
   9232 rxn753                                    1                       0
   9258 rxn76                                     1                       0
   9259 rxn760                                    1                       0
   9270 rxn763                                    1                       0
   9273 rxn764                                    1                       0
   9274 rxn764TO0                                 1                       0
   9306 rxn776                                    1                       0
   9310 rxn777                                    1                       0
   9324 rxn78                                     1                       0
   9349 rxn786                                    1                       0
   9402 rxn80                                     1                       0
   9417 rxn805                                    1                       0
   9418 rxn805TO0                                 2                       0
   9476 rxn82                                     1                       0
   9511 rxn83                                     1                       0
   9521 rxn833                                    1                       0
   9524 rxn834                                    1                       0
   9540 rxn839                                    1                       0
   9546 rxn84                                     1                       0
   9547 rxn840                                    1                       0
   9549 rxn840TO1                                 1                       0
   9562 rxn847                                    1                       0
   9598 rxn855                                    1                       0
   9608 rxn858                                    1                       0
   9610 rxn859                                    1                       0
   9618 rxn860                                    1                       0
   9629 rxn863                                    1                       0
   9658 rxn87                                     1                       0
   9799 rxn91                                     1                       0
   9869 rxn93                                     1                       0
   9910 rxn94                                     1                       0
   9979 rxn96                                     1                       0
  10019 rxn97                                     1                       0
  10058 rxn98                                     1                       0
  10092 rxn99                                     1                       0
  10123 rxn99TO1                                100                       0
  10214 s/541929                                  1                       1
  10217 s/584811                                  1                       1
  10220 s/92131                                   1                       1
  10226 s/NZ_GG730109|647533114                   1                       1
